32	0

0	2	2	3
3	1	4
2	1	4
10	2	5	6
4	1	7
4	1	7
9	1	8
8	1	9
10	1	10
9	2	11	12
9	1	13
4	2	13	14
2	1	15
6	1	15
7	1	16
6	1	17
3	1	18
10	1	19
8	1	20
7	1	21
8	1	22
6	1	23
7	1	24
2	1	25
5	1	26
3	1	27
1	1	28
1	1	29
6	1	30
1	1	31
10	1	32
0	0
